NAME: tsp25_29
COMMENT: 25-tsp problem (Padberg/Rinaldi)
TYPE: TSP
DIMENSION: 25
EDGE_WEIGHT_TYPE : EUC_2D
NODE_COORD_SECTION
1.00 32.48 2.31
2.00 0.59 1.89
3.00 0.12 24.01
4.00 20.12 6.65
5.00 29.47 38.58
6.00 15.47 3.25
7.00 38.02 39.50
8.00 36.98 25.00
9.00 15.41 16.52
10.00 2.76 30.10
11.00 7.39 13.67
12.00 0.24 15.76
13.00 31.34 36.34
14.00 24.40 1.78
15.00 26.45 0.67
16.00 24.63 20.98
17.00 6.45 27.59
18.00 38.59 19.47
19.00 2.33 32.92
20.00 21.03 8.74
21.00 10.18 10.65
22.00 11.46 9.27
23.00 39.57 4.88
24.00 28.86 1.05
25.00 12.42 9.62
